c User generated cnf file
p cnf 10 38
1 7 -9 0 
2 9 -5 0 
6 -6 6 0 
5 -8 10 0 
9 -6 1 0 
-1 5 9 0 
-4 10 2 0 
-10 7 8 0 
6 1 -9 0 
1 -1 1 0 
2 7 -4 0 
2 -7 8 0 
-9 3 6 0 
-8 5 4 0 
10 2 -4 0 
-8 1 10 0 
-8 9 6 0 
-8 3 5 0 
1 -5 1 0 
-1 3 2 0 
5 -4 4 0 
7 -6 10 0 
-7 9 10 0 
-6 7 7 0 
10 6 -8 0 
-7 3 1 0 
1 -8 4 0 
6 7 -8 0 
-4 4 10 0 
-9 3 8 0 
5 7 -7 0 
8 4 -8 0 
7 -9 4 0 
9 7 -9 0 
-3 8 5 0 
7 -9 1 0 
-10 9 9 0 
10 6 -5 0 
